certificates/rado_a26_c22_N141.cnf
c Rad2 upper bound instance: x1 + 26*x2 - x3 = 22, interval [1,141]
p cnf 141 864
1 5 0
-1 -5 0
1 2 31 0
-1 -2 -31 0
1 3 57 0
-1 -3 -57 0
1 4 83 0
-1 -4 -83 0
1 5 109 0
-1 -5 -109 0
1 6 135 0
-1 -6 -135 0
1 2 6 0
-1 -2 -6 0
2 32 0
-2 -32 0
2 3 58 0
-2 -3 -58 0
2 4 84 0
-2 -4 -84 0
2 5 110 0
-2 -5 -110 0
2 6 136 0
-2 -6 -136 0
1 3 7 0
-1 -3 -7 0
2 3 33 0
-2 -3 -33 0
3 59 0
-3 -59 0
3 4 85 0
-3 -4 -85 0
3 5 111 0
-3 -5 -111 0
3 6 137 0
-3 -6 -137 0
1 4 8 0
-1 -4 -8 0
2 4 34 0
-2 -4 -34 0
3 4 60 0
-3 -4 -60 0
4 86 0
-4 -86 0
4 5 112 0
-4 -5 -112 0
4 6 138 0
-4 -6 -138 0
1 5 9 0
-1 -5 -9 0
2 5 35 0
-2 -5 -35 0
3 5 61 0
-3 -5 -61 0
4 5 87 0
-4 -5 -87 0
5 113 0
-5 -113 0
5 6 139 0
-5 -6 -139 0
1 6 10 0
-1 -6 -10 0
2 6 36 0
-2 -6 -36 0
3 6 62 0
-3 -6 -62 0
4 6 88 0
-4 -6 -88 0
5 6 114 0
-5 -6 -114 0
6 140 0
-6 -140 0
1 7 11 0
-1 -7 -11 0
2 7 37 0
-2 -7 -37 0
3 7 63 0
-3 -7 -63 0
4 7 89 0
-4 -7 -89 0
5 7 115 0
-5 -7 -115 0
6 7 141 0
-6 -7 -141 0
1 8 12 0
-1 -8 -12 0
2 8 38 0
-2 -8 -38 0
3 8 64 0
-3 -8 -64 0
4 8 90 0
-4 -8 -90 0
5 8 116 0
-5 -8 -116 0
1 9 13 0
-1 -9 -13 0
2 9 39 0
-2 -9 -39 0
3 9 65 0
-3 -9 -65 0
4 9 91 0
-4 -9 -91 0
5 9 117 0
-5 -9 -117 0
1 10 14 0
-1 -10 -14 0
2 10 40 0
-2 -10 -40 0
3 10 66 0
-3 -10 -66 0
4 10 92 0
-4 -10 -92 0
5 10 118 0
-5 -10 -118 0
1 11 15 0
-1 -11 -15 0
2 11 41 0
-2 -11 -41 0
3 11 67 0
-3 -11 -67 0
4 11 93 0
-4 -11 -93 0
5 11 119 0
-5 -11 -119 0
1 12 16 0
-1 -12 -16 0
2 12 42 0
-2 -12 -42 0
3 12 68 0
-3 -12 -68 0
4 12 94 0
-4 -12 -94 0
5 12 120 0
-5 -12 -120 0
1 13 17 0
-1 -13 -17 0
2 13 43 0
-2 -13 -43 0
3 13 69 0
-3 -13 -69 0
4 13 95 0
-4 -13 -95 0
5 13 121 0
-5 -13 -121 0
1 14 18 0
-1 -14 -18 0
2 14 44 0
-2 -14 -44 0
3 14 70 0
-3 -14 -70 0
4 14 96 0
-4 -14 -96 0
5 14 122 0
-5 -14 -122 0
1 15 19 0
-1 -15 -19 0
2 15 45 0
-2 -15 -45 0
3 15 71 0
-3 -15 -71 0
4 15 97 0
-4 -15 -97 0
5 15 123 0
-5 -15 -123 0
1 16 20 0
-1 -16 -20 0
2 16 46 0
-2 -16 -46 0
3 16 72 0
-3 -16 -72 0
4 16 98 0
-4 -16 -98 0
5 16 124 0
-5 -16 -124 0
1 17 21 0
-1 -17 -21 0
2 17 47 0
-2 -17 -47 0
3 17 73 0
-3 -17 -73 0
4 17 99 0
-4 -17 -99 0
5 17 125 0
-5 -17 -125 0
1 18 22 0
-1 -18 -22 0
2 18 48 0
-2 -18 -48 0
3 18 74 0
-3 -18 -74 0
4 18 100 0
-4 -18 -100 0
5 18 126 0
-5 -18 -126 0
1 19 23 0
-1 -19 -23 0
2 19 49 0
-2 -19 -49 0
3 19 75 0
-3 -19 -75 0
4 19 101 0
-4 -19 -101 0
5 19 127 0
-5 -19 -127 0
1 20 24 0
-1 -20 -24 0
2 20 50 0
-2 -20 -50 0
3 20 76 0
-3 -20 -76 0
4 20 102 0
-4 -20 -102 0
5 20 128 0
-5 -20 -128 0
1 21 25 0
-1 -21 -25 0
2 21 51 0
-2 -21 -51 0
3 21 77 0
-3 -21 -77 0
4 21 103 0
-4 -21 -103 0
5 21 129 0
-5 -21 -129 0
1 22 26 0
-1 -22 -26 0
2 22 52 0
-2 -22 -52 0
3 22 78 0
-3 -22 -78 0
4 22 104 0
-4 -22 -104 0
5 22 130 0
-5 -22 -130 0
1 23 27 0
-1 -23 -27 0
2 23 53 0
-2 -23 -53 0
3 23 79 0
-3 -23 -79 0
4 23 105 0
-4 -23 -105 0
5 23 131 0
-5 -23 -131 0
1 24 28 0
-1 -24 -28 0
2 24 54 0
-2 -24 -54 0
3 24 80 0
-3 -24 -80 0
4 24 106 0
-4 -24 -106 0
5 24 132 0
-5 -24 -132 0
1 25 29 0
-1 -25 -29 0
2 25 55 0
-2 -25 -55 0
3 25 81 0
-3 -25 -81 0
4 25 107 0
-4 -25 -107 0
5 25 133 0
-5 -25 -133 0
1 26 30 0
-1 -26 -30 0
2 26 56 0
-2 -26 -56 0
3 26 82 0
-3 -26 -82 0
4 26 108 0
-4 -26 -108 0
5 26 134 0
-5 -26 -134 0
1 27 31 0
-1 -27 -31 0
2 27 57 0
-2 -27 -57 0
3 27 83 0
-3 -27 -83 0
4 27 109 0
-4 -27 -109 0
5 27 135 0
-5 -27 -135 0
1 28 32 0
-1 -28 -32 0
2 28 58 0
-2 -28 -58 0
3 28 84 0
-3 -28 -84 0
4 28 110 0
-4 -28 -110 0
5 28 136 0
-5 -28 -136 0
1 29 33 0
-1 -29 -33 0
2 29 59 0
-2 -29 -59 0
3 29 85 0
-3 -29 -85 0
4 29 111 0
-4 -29 -111 0
5 29 137 0
-5 -29 -137 0
1 30 34 0
-1 -30 -34 0
2 30 60 0
-2 -30 -60 0
3 30 86 0
-3 -30 -86 0
4 30 112 0
-4 -30 -112 0
5 30 138 0
-5 -30 -138 0
1 31 35 0
-1 -31 -35 0
2 31 61 0
-2 -31 -61 0
3 31 87 0
-3 -31 -87 0
4 31 113 0
-4 -31 -113 0
5 31 139 0
-5 -31 -139 0
1 32 36 0
-1 -32 -36 0
2 32 62 0
-2 -32 -62 0
3 32 88 0
-3 -32 -88 0
4 32 114 0
-4 -32 -114 0
5 32 140 0
-5 -32 -140 0
1 33 37 0
-1 -33 -37 0
2 33 63 0
-2 -33 -63 0
3 33 89 0
-3 -33 -89 0
4 33 115 0
-4 -33 -115 0
5 33 141 0
-5 -33 -141 0
1 34 38 0
-1 -34 -38 0
2 34 64 0
-2 -34 -64 0
3 34 90 0
-3 -34 -90 0
4 34 116 0
-4 -34 -116 0
1 35 39 0
-1 -35 -39 0
2 35 65 0
-2 -35 -65 0
3 35 91 0
-3 -35 -91 0
4 35 117 0
-4 -35 -117 0
1 36 40 0
-1 -36 -40 0
2 36 66 0
-2 -36 -66 0
3 36 92 0
-3 -36 -92 0
4 36 118 0
-4 -36 -118 0
1 37 41 0
-1 -37 -41 0
2 37 67 0
-2 -37 -67 0
3 37 93 0
-3 -37 -93 0
4 37 119 0
-4 -37 -119 0
1 38 42 0
-1 -38 -42 0
2 38 68 0
-2 -38 -68 0
3 38 94 0
-3 -38 -94 0
4 38 120 0
-4 -38 -120 0
1 39 43 0
-1 -39 -43 0
2 39 69 0
-2 -39 -69 0
3 39 95 0
-3 -39 -95 0
4 39 121 0
-4 -39 -121 0
1 40 44 0
-1 -40 -44 0
2 40 70 0
-2 -40 -70 0
3 40 96 0
-3 -40 -96 0
4 40 122 0
-4 -40 -122 0
1 41 45 0
-1 -41 -45 0
2 41 71 0
-2 -41 -71 0
3 41 97 0
-3 -41 -97 0
4 41 123 0
-4 -41 -123 0
1 42 46 0
-1 -42 -46 0
2 42 72 0
-2 -42 -72 0
3 42 98 0
-3 -42 -98 0
4 42 124 0
-4 -42 -124 0
1 43 47 0
-1 -43 -47 0
2 43 73 0
-2 -43 -73 0
3 43 99 0
-3 -43 -99 0
4 43 125 0
-4 -43 -125 0
1 44 48 0
-1 -44 -48 0
2 44 74 0
-2 -44 -74 0
3 44 100 0
-3 -44 -100 0
4 44 126 0
-4 -44 -126 0
1 45 49 0
-1 -45 -49 0
2 45 75 0
-2 -45 -75 0
3 45 101 0
-3 -45 -101 0
4 45 127 0
-4 -45 -127 0
1 46 50 0
-1 -46 -50 0
2 46 76 0
-2 -46 -76 0
3 46 102 0
-3 -46 -102 0
4 46 128 0
-4 -46 -128 0
1 47 51 0
-1 -47 -51 0
2 47 77 0
-2 -47 -77 0
3 47 103 0
-3 -47 -103 0
4 47 129 0
-4 -47 -129 0
1 48 52 0
-1 -48 -52 0
2 48 78 0
-2 -48 -78 0
3 48 104 0
-3 -48 -104 0
4 48 130 0
-4 -48 -130 0
1 49 53 0
-1 -49 -53 0
2 49 79 0
-2 -49 -79 0
3 49 105 0
-3 -49 -105 0
4 49 131 0
-4 -49 -131 0
1 50 54 0
-1 -50 -54 0
2 50 80 0
-2 -50 -80 0
3 50 106 0
-3 -50 -106 0
4 50 132 0
-4 -50 -132 0
1 51 55 0
-1 -51 -55 0
2 51 81 0
-2 -51 -81 0
3 51 107 0
-3 -51 -107 0
4 51 133 0
-4 -51 -133 0
1 52 56 0
-1 -52 -56 0
2 52 82 0
-2 -52 -82 0
3 52 108 0
-3 -52 -108 0
4 52 134 0
-4 -52 -134 0
1 53 57 0
-1 -53 -57 0
2 53 83 0
-2 -53 -83 0
3 53 109 0
-3 -53 -109 0
4 53 135 0
-4 -53 -135 0
1 54 58 0
-1 -54 -58 0
2 54 84 0
-2 -54 -84 0
3 54 110 0
-3 -54 -110 0
4 54 136 0
-4 -54 -136 0
1 55 59 0
-1 -55 -59 0
2 55 85 0
-2 -55 -85 0
3 55 111 0
-3 -55 -111 0
4 55 137 0
-4 -55 -137 0
1 56 60 0
-1 -56 -60 0
2 56 86 0
-2 -56 -86 0
3 56 112 0
-3 -56 -112 0
4 56 138 0
-4 -56 -138 0
1 57 61 0
-1 -57 -61 0
2 57 87 0
-2 -57 -87 0
3 57 113 0
-3 -57 -113 0
4 57 139 0
-4 -57 -139 0
1 58 62 0
-1 -58 -62 0
2 58 88 0
-2 -58 -88 0
3 58 114 0
-3 -58 -114 0
4 58 140 0
-4 -58 -140 0
1 59 63 0
-1 -59 -63 0
2 59 89 0
-2 -59 -89 0
3 59 115 0
-3 -59 -115 0
4 59 141 0
-4 -59 -141 0
1 60 64 0
-1 -60 -64 0
2 60 90 0
-2 -60 -90 0
3 60 116 0
-3 -60 -116 0
1 61 65 0
-1 -61 -65 0
2 61 91 0
-2 -61 -91 0
3 61 117 0
-3 -61 -117 0
1 62 66 0
-1 -62 -66 0
2 62 92 0
-2 -62 -92 0
3 62 118 0
-3 -62 -118 0
1 63 67 0
-1 -63 -67 0
2 63 93 0
-2 -63 -93 0
3 63 119 0
-3 -63 -119 0
1 64 68 0
-1 -64 -68 0
2 64 94 0
-2 -64 -94 0
3 64 120 0
-3 -64 -120 0
1 65 69 0
-1 -65 -69 0
2 65 95 0
-2 -65 -95 0
3 65 121 0
-3 -65 -121 0
1 66 70 0
-1 -66 -70 0
2 66 96 0
-2 -66 -96 0
3 66 122 0
-3 -66 -122 0
1 67 71 0
-1 -67 -71 0
2 67 97 0
-2 -67 -97 0
3 67 123 0
-3 -67 -123 0
1 68 72 0
-1 -68 -72 0
2 68 98 0
-2 -68 -98 0
3 68 124 0
-3 -68 -124 0
1 69 73 0
-1 -69 -73 0
2 69 99 0
-2 -69 -99 0
3 69 125 0
-3 -69 -125 0
1 70 74 0
-1 -70 -74 0
2 70 100 0
-2 -70 -100 0
3 70 126 0
-3 -70 -126 0
1 71 75 0
-1 -71 -75 0
2 71 101 0
-2 -71 -101 0
3 71 127 0
-3 -71 -127 0
1 72 76 0
-1 -72 -76 0
2 72 102 0
-2 -72 -102 0
3 72 128 0
-3 -72 -128 0
1 73 77 0
-1 -73 -77 0
2 73 103 0
-2 -73 -103 0
3 73 129 0
-3 -73 -129 0
1 74 78 0
-1 -74 -78 0
2 74 104 0
-2 -74 -104 0
3 74 130 0
-3 -74 -130 0
1 75 79 0
-1 -75 -79 0
2 75 105 0
-2 -75 -105 0
3 75 131 0
-3 -75 -131 0
1 76 80 0
-1 -76 -80 0
2 76 106 0
-2 -76 -106 0
3 76 132 0
-3 -76 -132 0
1 77 81 0
-1 -77 -81 0
2 77 107 0
-2 -77 -107 0
3 77 133 0
-3 -77 -133 0
1 78 82 0
-1 -78 -82 0
2 78 108 0
-2 -78 -108 0
3 78 134 0
-3 -78 -134 0
1 79 83 0
-1 -79 -83 0
2 79 109 0
-2 -79 -109 0
3 79 135 0
-3 -79 -135 0
1 80 84 0
-1 -80 -84 0
2 80 110 0
-2 -80 -110 0
3 80 136 0
-3 -80 -136 0
1 81 85 0
-1 -81 -85 0
2 81 111 0
-2 -81 -111 0
3 81 137 0
-3 -81 -137 0
1 82 86 0
-1 -82 -86 0
2 82 112 0
-2 -82 -112 0
3 82 138 0
-3 -82 -138 0
1 83 87 0
-1 -83 -87 0
2 83 113 0
-2 -83 -113 0
3 83 139 0
-3 -83 -139 0
1 84 88 0
-1 -84 -88 0
2 84 114 0
-2 -84 -114 0
3 84 140 0
-3 -84 -140 0
1 85 89 0
-1 -85 -89 0
2 85 115 0
-2 -85 -115 0
3 85 141 0
-3 -85 -141 0
1 86 90 0
-1 -86 -90 0
2 86 116 0
-2 -86 -116 0
1 87 91 0
-1 -87 -91 0
2 87 117 0
-2 -87 -117 0
1 88 92 0
-1 -88 -92 0
2 88 118 0
-2 -88 -118 0
1 89 93 0
-1 -89 -93 0
2 89 119 0
-2 -89 -119 0
1 90 94 0
-1 -90 -94 0
2 90 120 0
-2 -90 -120 0
1 91 95 0
-1 -91 -95 0
2 91 121 0
-2 -91 -121 0
1 92 96 0
-1 -92 -96 0
2 92 122 0
-2 -92 -122 0
1 93 97 0
-1 -93 -97 0
2 93 123 0
-2 -93 -123 0
1 94 98 0
-1 -94 -98 0
2 94 124 0
-2 -94 -124 0
1 95 99 0
-1 -95 -99 0
2 95 125 0
-2 -95 -125 0
1 96 100 0
-1 -96 -100 0
2 96 126 0
-2 -96 -126 0
1 97 101 0
-1 -97 -101 0
2 97 127 0
-2 -97 -127 0
1 98 102 0
-1 -98 -102 0
2 98 128 0
-2 -98 -128 0
1 99 103 0
-1 -99 -103 0
2 99 129 0
-2 -99 -129 0
1 100 104 0
-1 -100 -104 0
2 100 130 0
-2 -100 -130 0
1 101 105 0
-1 -101 -105 0
2 101 131 0
-2 -101 -131 0
1 102 106 0
-1 -102 -106 0
2 102 132 0
-2 -102 -132 0
1 103 107 0
-1 -103 -107 0
2 103 133 0
-2 -103 -133 0
1 104 108 0
-1 -104 -108 0
2 104 134 0
-2 -104 -134 0
1 105 109 0
-1 -105 -109 0
2 105 135 0
-2 -105 -135 0
1 106 110 0
-1 -106 -110 0
2 106 136 0
-2 -106 -136 0
1 107 111 0
-1 -107 -111 0
2 107 137 0
-2 -107 -137 0
1 108 112 0
-1 -108 -112 0
2 108 138 0
-2 -108 -138 0
1 109 113 0
-1 -109 -113 0
2 109 139 0
-2 -109 -139 0
1 110 114 0
-1 -110 -114 0
2 110 140 0
-2 -110 -140 0
1 111 115 0
-1 -111 -115 0
2 111 141 0
-2 -111 -141 0
1 112 116 0
-1 -112 -116 0
1 113 117 0
-1 -113 -117 0
1 114 118 0
-1 -114 -118 0
1 115 119 0
-1 -115 -119 0
1 116 120 0
-1 -116 -120 0
1 117 121 0
-1 -117 -121 0
1 118 122 0
-1 -118 -122 0
1 119 123 0
-1 -119 -123 0
1 120 124 0
-1 -120 -124 0
1 121 125 0
-1 -121 -125 0
1 122 126 0
-1 -122 -126 0
1 123 127 0
-1 -123 -127 0
1 124 128 0
-1 -124 -128 0
1 125 129 0
-1 -125 -129 0
1 126 130 0
-1 -126 -130 0
1 127 131 0
-1 -127 -131 0
1 128 132 0
-1 -128 -132 0
1 129 133 0
-1 -129 -133 0
1 130 134 0
-1 -130 -134 0
1 131 135 0
-1 -131 -135 0
1 132 136 0
-1 -132 -136 0
1 133 137 0
-1 -133 -137 0
1 134 138 0
-1 -134 -138 0
1 135 139 0
-1 -135 -139 0
1 136 140 0
-1 -136 -140 0
1 137 141 0
-1 -137 -141 0
