certificates/rado_a26_c22_N141.drat
1 -139 6 0
-1 -141 0
6 -141 0
-141 0
1 0
-5 0
113 0
33 0
-117 0
-109 0
-37 0
-29 0
9 0
137 0
-13 0
135 2 0
d 105 135 2 0
-6 0
139 0
114 0
-133 0
121 0
140 0
7 0
-135 0
-118 0
-110 0
25 0
-125 0
-136 0
-11 0
-3 0
27 0
2 0
10 0
-21 0
-55 0
17 0
69 0
28 0
80 0
67 0
119 0
59 0
111 0
61 0
62 0
85 0
53 0
54 0
79 0
93 0
77 0
-31 0
-57 0
-23 0
-32 0
-63 0
-83 0
-107 0
-39 0
-84 0
-91 0
-14 0
-40 0
129 0
-47 0
-73 0
-99 0
-65 0
-58 0
-24 0
-76 0
-50 0
-71 0
-97 0
-123 0
-115 0
-89 0
-81 0
-66 0
-92 0
-49 0
-75 0
87 0
131 0
88 0
51 0
95 0
35 0
70 0
122 0
96 0
103 0
43 0
132 0
20 0
106 0
127 0
15 0
41 0
36 0
105 0
19 0
0
